number = array2d(1..12,1..3,[
  
  1,_,1,
  1,1,1,
  2,_,2,
  2,2,2,
  3,3,3,
  3,_,3,
  4,4,4,
  4,_,4,
  1,_,2,
  3,_,4,
  1,_,3,
  2,_,4
  
]);

operation = array1d(1..12,[
  _,
  _,
  _,
  _,
  _,
  0,
  _,
  _,
  _,
  _,
  _,
  _
]);



number2 = array2d(1..8,1..4,[
  
  1,_,_,1,
  1,1,_,1,
  2,2,_,2,
  2,_,_,2,
  3,_,_,3,
  3,3,_,3,
  4,4,_,4,
  4,_,_,4
  
]);

operation2 = array1d(1..8,[
  _,
  _,
  _,
  _,
  0,
  _,
  _,
  _
]);